sat
(:added-eqs                   806
 :arith-eq-adapter            480
 :arith-bound-propagations-lp 89
 :arith-branch                37
 :arith-conflicts             35
 :arith-cube-calls            9
 :arith-dio-calls             37
 :arith-diseq                 283
 :arith-fixed-eqs             14
 :arith-gcd-calls             38
 :arith-lower                 1818
 :arith-make-feasible         661
 :arith-max-columns           836
 :arith-max-rows              301
 :arith-patches               38
 :arith-patches-success       1
 :arith-upper                 1338
 :binary-propagations         869
 :conflicts                   57
 :decisions                   493
 :del-clause                  272
 :final-checks                38
 :max-memory                  24.65
 :memory                      20.35
 :mk-bool-var                 2981
 :mk-clause                   464
 :mk-clause-binary            398
 :num-allocs                  25326801
 :num-checks                  1
 :propagations                977
 :rlimit-count                299148
 :solve-eqs-elim-vars         426
 :solve-eqs-steps             3065
 :time                        0.16
 :total-time                  0.23)
